proyfinal/src/viki/013/experimentInOfficeAgust.take6.output/bdf4ce07-a263-42cc-a255-d87c6d7b8ded.als.dat
{'cnf.clauses': '118081',
 'cnf.totvars': '69608',
 'conflict literals': '85',
 'conflicts': '37',
 'decisions': '3955',
 'memused.mb': '14.64',
 'outcome': 'UNSAT',
 'propagations': '29416',
 'restarts': '1',
 'solver.msecs': 31,
 'task.msecs': 81}
