proyfinal/src/viki/013/experimentInOfficeAgust.take6.output/bdf4ce07-a263-42cc-a255-d87c6d7b8ded.als.out
Reading from standard input... Use '--help' for help.
============================[ Problem Statistics ]=============================
|                                                                             |
|  Number of variables:         69608                                         |
|  Number of clauses:          118081                                         |
|  Parse time:                   0.02 s                                       |
|                                                                             |
============================[ Search Statistics ]==============================
| Conflicts |          ORIGINAL         |          LEARNT          | Progress |
|           |    Vars  Clauses Literals |    Limit  Clauses Lit/Cl |          |
===============================================================================
===============================================================================
restarts              : 1
conflicts             : 37             (1186 /sec)
decisions             : 3955           (0.00 % random) (126803 /sec)
propagations          : 29416          (943123 /sec)
conflict literals     : 85             (5.56 % deleted)
Memory used           : 14.64 MB
CPU time              : 0.03119 s

UNSATISFIABLE
